(set-info :status unsat)
(declare-codatatypes ((T 0)) ((
  (f0)
  (f1 (proj0f1 T))
  (f2 (proj0f2 T) (proj1f2 T)))))
(assert (exists ((y20225 T) (y20224 T) (y20222 T) (y20221 T) (y20220 T) (y20205 T) (y20204 T) (y20199 T) (y20198 T) (y20219 T) (y20195 T) (y20217 T) (y20207 T) (y20196 T) (y20212 T) (y20213 T) (y20214 T) (y20211 T) (y20206 T) (y20203 T) (y20209 T) (y20208 T)) (forall ((x20228 T) (x20229 T) (x20226 T) (x20227 T) (x20235 T) (x20234 T) (x20233 T) (x20232 T) (x20231 T) (x20230 T)) 
  (or 
    (and (= y20195 (f1 y20195)) (= y20196 (f1 y20196)) (distinct y20195 y20196)) 
    (and (= x20231 (f1 y20199)) (= y20199 (f2 x20231 x20233)) (= y20198 (f1 x20234)) (= x20234 (f2 y20198 x20233)) (distinct x20231 y20198)) 
    (and (= x20235 (f2 x20235 x20233)) (= x20232 (f2 x20232 x20233)) (distinct x20235 x20232)) 
    (and (= y20203 (f1 y20203)) (= y20204 (f1 y20204)) (distinct y20203 y20204)) 
    (and (= y20205 (f1 y20207)) (= y20207 (f1 y20205)) (= y20206 (f1 y20208)) (= y20208 (f1 y20206)) (distinct y20205 y20206)) 
    (and (= y20209 (f1 (f2 (f2 (f2 y20209 x20233) x20233) (f1 (f2 x20233 x20233))))) (= x20226 (f1 (f2 (f2 y20211 x20233) (f1 (f2 x20233 x20233))))) (= y20211 (f2 x20226 x20233)) (distinct y20209 x20226)) 
    (and (= y20212 (f1 y20214)) (= y20214 (f1 x20229)) (= x20229 (f1 x20227)) (= x20227 (f2 y20212 x20233)) (= y20213 (f1 (f1 (f1 (f2 y20213 x20233))))) (distinct y20212 y20213)) 
    (and (= y20217 (f1 y20219)) (= y20219 (f2 y20217 x20233)) (= x20228 (f1 (f2 x20228 x20233))) (distinct y20217 x20228)) 
    (and (= y20220 (f2 y20220 x20233)) (= y20221 (f2 y20221 x20233)) (distinct y20220 y20221)) 
    (and (= y20222 (f2 y20224 x20233)) (= y20224 (f2 y20222 x20233)) (= x20230 (f2 y20225 x20233)) (= y20225 (f2 x20230 x20233)) (distinct y20222 x20230))))))
(check-sat)
